; benchmark generated from python API
(set-info :status unknown)
(declare-fun x5 () Real)
(declare-fun x3 () Real)
(declare-fun bool.b5 () Bool)
(declare-fun x4 () Real)
(declare-fun bool.b14 () Bool)
(declare-fun bool.b10 () Bool)
(declare-fun bool.b8 () Bool)
(declare-fun bool.b12 () Bool)
(declare-fun bool.b23 () Bool)
(declare-fun bool.b6 () Bool)
(declare-fun bool.b7 () Bool)
(declare-fun bool.b22 () Bool)
(assert
 (forall ((?lambda Real) )(let ((?x5280 (+ x3 (* (/ (- 1.0) 5.0) ?lambda))))
 (let ((?x29883 (* 1.0 ?x5280)))
 (let ((?x19976 (+ ?x29883 (* (/ 1.0 5.0) (+ x5 (* 1.0 ?lambda))))))
 (let (($x19411 (<= ?x19976 2.0)))
 (let (($x13324 (not bool.b5)))
 (let (($x14990 (<= (* (- 1.0) (+ x5 (* 1.0 ?lambda))) (- 10.0))))
 (let (($x4456 (and $x14990 (and $x13324 (not (<= (* 1.0 (+ x4 (* 20.0 ?lambda))) 4820.0))))))
 (let (($x13496 (<= ?x29883 0.0)))
 (let (($x15927 (and (and (not bool.b8) (not bool.b10)) (and $x13324 (not bool.b14)))))
 (let (($x25358 (not bool.b12)))
 (let (($x17590 (and $x25358 $x15927)))
 (let (($x94 (and $x14990 (and (<= ?x29883 40.0) $x17590))))
 (let ((?x22573 (+ ?x29883 (* (/ 3.0 20.0) (+ x4 (* 20.0 ?lambda))))))
 (let (($x1382 (<= ?x22573 1200.0)))
 (let (($x3090 (and $x1382 (and (<= (+ ?x29883 (* 3.0 (+ x5 (* 1.0 ?lambda)))) 50.0) $x94))))
 (let (($x2170 (not (<= ?x22573 723.0))))
 (let (($x30037 (and (not (and (not $x13496) (not (and $x2170 $x3090)))) (not (and $x13496 (not $x4456))))))
 (let ((?x19524 (+ (* (- 1.0) ?x5280) (* (/ (- 1.0) 5.0) (+ x5 (* 1.0 ?lambda))))))
 (let (($x12343 (<= ?x19524 (- 2.0))))
 (let (($x20119 (and $x12343 (and (not (and (not $x19411) (not $x30037))) (not (and bool.b5 $x19411))))))
 (let ((?x22690 (+ ?x22573 (* (/ (- 14.0) 5.0) (+ x5 (* 1.0 ?lambda))))))
 (let (($x26230 (<= ?x22690 695.0)))
 (let (($x13228 (not $x26230)))
 (let (($x33926 (<= ?x22690 1172.0)))
 (let ((?x15605 (+ ?x29883 (* (/ 3.0 40.0) (+ x4 (* 20.0 ?lambda))))))
 (let (($x34458 (<= ?x15605 (/ 743.0 2.0))))
 (let (($x9110 (and (<= ?x15605 610.0) (and $x1382 (and $x14990 (and (<= ?x29883 30.0) $x17590))))))
 (let (($x633 (and (not (and (not $x34458) (not $x9110))) (not (and $x34458 (not (and $x2170 (and $x1382 $x94))))))))
 (let (($x13762 (not $x633)))
 (let (($x15045 (and (not (and (not (<= ?x19976 22.0)) $x13762)) (not (and (not $x17590) (<= ?x19976 22.0))))))
 (let (($x3942 (and $x33926 (and (not (and $x13228 (not (and $x12343 $x15045)))) (not (and $x26230 $x13762))))))
 (let (($x7467 (not bool.b23)))
 (let (($x6437 (and (not (and $x7467 (not $x3942))) (not (and bool.b23 (not (and $x33926 (and $x13228 $x20119))))))))
 (let (($x10950 (not (and (not bool.b7) (not (and bool.b5 (not bool.b6)))))))
 (let (($x25957 (not bool.b22)))
 (let (($x4675 (and $x25957 (and $x10950 (not (and bool.b7 (not (and bool.b6 $x6437))))))))
 (let (($x22366 (exists ((?lambdaprime Real) )(! (let (($x25957 (not bool.b22)))
 (let ((?x5280 (+ x3 (* (/ (- 1.0) 5.0) ?lambdaprime))))
 (let ((?x29883 (* 1.0 ?x5280)))
 (let (($x1307 (<= ?x29883 30.0)))
 (let (($x10545 (not $x1307)))
 (let (($x1151 (and $x10545 (not (<= (* (- 1.0) (+ x4 (* 20.0 ?lambdaprime))) (- 4910.0))))))
 (let (($x16159 (and (not $x1151) (and $x25957 (and (not bool.b7) (and (not bool.b5) bool.b6))))))
 (let (($x22414 (and $x10545 (not (<= (* (- 1.0) (+ x4 (* 20.0 ?lambdaprime))) (- 4500.0))))))
 (let (($x4363 (and (not $x22414) (and $x25957 (and bool.b7 (and (not bool.b5) (not bool.b6)))))))
 (let (($x2516 (and (not (<= (* (- 1.0) (+ x4 (* 20.0 ?lambdaprime))) (- 4100.0))) $x10545)))
 (let (($x8015 (and (not $x2516) (and $x25957 (and (not bool.b7) (and (not bool.b5) (not bool.b6)))))))
 (let (($x8101 (and (not (<= (* (- 1.0) (+ x5 (* 1.0 ?lambdaprime))) (- 10.0))) (and (and (not $x8015) (not $x4363)) (not $x16159)))))
 (and (and (<= 0.0 ?lambdaprime) (<= ?lambdaprime ?lambda)) (not $x8101)))))))))))))) :qid k!27))
 ))
 (or (or $x22366 (< ?lambda 0.0)) (not $x4675))))))))))))))))))))))))))))))))))))))))
 )
(check-sat)
